NAME: TRP-S500-R1
TYPE: TSP
COMMENT: Traveling Repairman Problem (TRP) Instances based on uniform distribution. Designed by Amir Salehipour, University of Antwerp, 2006.
DIMENSION: 501
EDGE_WEIGHT_TYPE: EUC_2D
NODE_COORD_SECTION
1 206.0 138.0
2 477.0 300.0
3 331.0 425.0
4 276.0 500.0
5 221.0 470.0
6 470.0 30.0
7 25.0 192.0
8 450.0 4.0
9 287.0 62.0
10 246.0 271.0
11 407.0 285.0
12 277.0 211.0
13 73.0 67.0
14 375.0 240.0
15 57.0 283.0
16 81.0 478.0
17 19.0 139.0
18 484.0 292.0
19 200.0 137.0
20 128.0 150.0
21 163.0 442.0
22 229.0 9.0
23 444.0 461.0
24 252.0 177.0
25 288.0 225.0
26 77.0 351.0
27 328.0 391.0
28 298.0 298.0
29 375.0 455.0
30 403.0 365.0
31 185.0 493.0
32 367.0 284.0
33 369.0 14.0
34 398.0 466.0
35 313.0 249.0
36 387.0 245.0
37 263.0 460.0
38 290.0 271.0
39 464.0 92.0
40 488.0 1.0
41 486.0 348.0
42 374.0 1.0
43 141.0 15.0
44 188.0 7.0
45 113.0 117.0
46 363.0 443.0
47 211.0 231.0
48 401.0 357.0
49 377.0 32.0
50 43.0 477.0
51 328.0 407.0
52 247.0 333.0
53 4.0 202.0
54 244.0 161.0
55 169.0 451.0
56 180.0 26.0
57 353.0 144.0
58 123.0 384.0
59 482.0 371.0
60 429.0 20.0
61 371.0 424.0
62 261.0 79.0
63 449.0 182.0
64 247.0 133.0
65 364.0 350.0
66 69.0 496.0
67 361.0 394.0
68 478.0 227.0
69 71.0 235.0
70 13.0 41.0
71 100.0 46.0
72 434.0 71.0
73 61.0 215.0
74 140.0 179.0
75 441.0 314.0
76 81.0 283.0
77 438.0 141.0
78 432.0 392.0
79 164.0 175.0
80 47.0 312.0
81 356.0 17.0
82 457.0 209.0
83 476.0 136.0
84 429.0 4.0
85 353.0 17.0
86 345.0 290.0
87 248.0 24.0
88 428.0 218.0
89 489.0 56.0
90 69.0 79.0
91 62.0 341.0
92 282.0 6.0
93 303.0 420.0
94 39.0 18.0
95 76.0 179.0
96 19.0 358.0
97 83.0 471.0
98 14.0 317.0
99 195.0 199.0
100 27.0 11.0
101 443.0 399.0
102 319.0 299.0
103 59.0 174.0
104 423.0 315.0
105 215.0 50.0
106 382.0 294.0
107 340.0 86.0
108 247.0 167.0
109 159.0 308.0
110 75.0 107.0
111 355.0 301.0
112 464.0 3.0
113 475.0 43.0
114 376.0 39.0
115 489.0 291.0
116 277.0 356.0
117 134.0 120.0
118 340.0 478.0
119 432.0 425.0
120 254.0 476.0
121 25.0 473.0
122 378.0 50.0
123 225.0 329.0
124 270.0 8.0
125 404.0 238.0
126 357.0 326.0
127 128.0 293.0
128 255.0 243.0
129 167.0 452.0
130 7.0 107.0
131 285.0 257.0
132 261.0 415.0
133 426.0 310.0
134 140.0 252.0
135 218.0 348.0
136 338.0 80.0
137 404.0 490.0
138 186.0 86.0
139 120.0 485.0
140 225.0 39.0
141 138.0 37.0
142 35.0 358.0
143 472.0 44.0
144 348.0 341.0
145 498.0 310.0
146 200.0 269.0
147 461.0 87.0
148 141.0 330.0
149 20.0 491.0
150 283.0 60.0
151 222.0 153.0
152 167.0 272.0
153 41.0 158.0
154 261.0 160.0
155 380.0 114.0
156 60.0 34.0
157 162.0 422.0
158 83.0 400.0
159 419.0 85.0
160 275.0 325.0
161 9.0 119.0
162 73.0 291.0
163 351.0 408.0
164 158.0 7.0
165 320.0 74.0
166 156.0 358.0
167 202.0 192.0
168 314.0 464.0
169 330.0 424.0
170 389.0 43.0
171 314.0 413.0
172 305.0 31.0
173 483.0 498.0
174 306.0 166.0
175 453.0 87.0
176 147.0 488.0
177 444.0 269.0
178 77.0 452.0
179 238.0 490.0
180 127.0 119.0
181 433.0 362.0
182 480.0 118.0
183 369.0 455.0
184 427.0 332.0
185 366.0 124.0
186 181.0 24.0
187 183.0 224.0
188 66.0 336.0
189 310.0 264.0
190 335.0 385.0
191 13.0 363.0
192 152.0 389.0
193 250.0 46.0
194 487.0 47.0
195 361.0 242.0
196 444.0 104.0
197 171.0 48.0
198 298.0 326.0
199 387.0 76.0
200 234.0 317.0
201 448.0 488.0
202 78.0 405.0
203 202.0 25.0
204 28.0 20.0
205 55.0 109.0
206 130.0 301.0
207 488.0 365.0
208 56.0 354.0
209 78.0 120.0
210 407.0 388.0
211 413.0 216.0
212 85.0 166.0
213 46.0 214.0
214 486.0 485.0
215 373.0 327.0
216 40.0 128.0
217 79.0 134.0
218 349.0 6.0
219 41.0 437.0
220 453.0 421.0
221 334.0 310.0
222 480.0 176.0
223 223.0 188.0
224 205.0 473.0
225 281.0 58.0
226 271.0 301.0
227 37.0 101.0
228 99.0 274.0
229 277.0 337.0
230 246.0 113.0
231 399.0 122.0
232 231.0 238.0
233 463.0 71.0
234 91.0 161.0
235 319.0 222.0
236 183.0 139.0
237 465.0 39.0
238 1.0 284.0
239 14.0 64.0
240 22.0 102.0
241 416.0 314.0
242 340.0 130.0
243 332.0 230.0
244 118.0 163.0
245 283.0 280.0
246 108.0 244.0
247 487.0 17.0
248 268.0 385.0
249 8.0 200.0
250 228.0 221.0
251 111.0 282.0
252 136.0 42.0
253 470.0 354.0
254 138.0 419.0
255 112.0 369.0
256 7.0 362.0
257 244.0 232.0
258 202.0 231.0
259 348.0 75.0
260 349.0 333.0
261 187.0 298.0
262 431.0 427.0
263 115.0 204.0
264 190.0 74.0
265 327.0 311.0
266 13.0 51.0
267 446.0 160.0
268 311.0 265.0
269 73.0 206.0
270 162.0 386.0
271 220.0 117.0
272 241.0 141.0
273 227.0 49.0
274 275.0 479.0
275 89.0 250.0
276 79.0 52.0
277 315.0 39.0
278 401.0 227.0
279 211.0 21.0
280 117.0 75.0
281 234.0 85.0
282 28.0 33.0
283 302.0 38.0
284 281.0 206.0
285 203.0 438.0
286 176.0 9.0
287 494.0 465.0
288 379.0 92.0
289 31.0 392.0
290 304.0 262.0
291 13.0 6.0
292 172.0 350.0
293 197.0 39.0
294 34.0 226.0
295 160.0 443.0
296 245.0 425.0
297 246.0 94.0
298 183.0 63.0
299 114.0 240.0
300 201.0 29.0
301 490.0 281.0
302 107.0 126.0
303 44.0 209.0
304 159.0 134.0
305 25.0 277.0
306 361.0 487.0
307 29.0 239.0
308 71.0 25.0
309 66.0 224.0
310 171.0 20.0
311 296.0 87.0
312 348.0 423.0
313 85.0 301.0
314 213.0 55.0
315 270.0 231.0
316 302.0 166.0
317 268.0 358.0
318 212.0 92.0
319 433.0 286.0
320 392.0 450.0
321 283.0 113.0
322 350.0 72.0
323 2.0 483.0
324 295.0 141.0
325 357.0 414.0
326 485.0 219.0
327 410.0 211.0
328 279.0 138.0
329 174.0 59.0
330 186.0 437.0
331 108.0 116.0
332 394.0 312.0
333 75.0 182.0
334 77.0 276.0
335 176.0 274.0
336 472.0 491.0
337 78.0 198.0
338 499.0 456.0
339 247.0 415.0
340 445.0 26.0
341 209.0 317.0
342 473.0 453.0
343 243.0 212.0
344 469.0 402.0
345 140.0 112.0
346 494.0 153.0
347 421.0 141.0
348 364.0 428.0
349 151.0 156.0
350 115.0 64.0
351 242.0 392.0
352 368.0 472.0
353 391.0 221.0
354 365.0 88.0
355 35.0 349.0
356 196.0 274.0
357 463.0 31.0
358 465.0 363.0
359 491.0 130.0
360 426.0 314.0
361 314.0 94.0
362 359.0 163.0
363 457.0 192.0
364 179.0 242.0
365 439.0 77.0
366 67.0 356.0
367 53.0 498.0
368 127.0 373.0
369 403.0 261.0
370 336.0 437.0
371 88.0 242.0
372 305.0 246.0
373 166.0 48.0
374 114.0 110.0
375 302.0 143.0
376 238.0 236.0
377 229.0 30.0
378 332.0 441.0
379 415.0 297.0
380 383.0 246.0
381 87.0 128.0
382 3.0 69.0
383 484.0 93.0
384 377.0 443.0
385 498.0 290.0
386 125.0 486.0
387 82.0 193.0
388 103.0 66.0
389 64.0 246.0
390 404.0 367.0
391 279.0 72.0
392 70.0 300.0
393 121.0 335.0
394 291.0 478.0
395 446.0 121.0
396 97.0 200.0
397 443.0 386.0
398 320.0 136.0
399 364.0 315.0
400 320.0 192.0
401 266.0 168.0
402 273.0 233.0
403 145.0 438.0
404 3.0 127.0
405 110.0 399.0
406 148.0 324.0
407 476.0 377.0
408 165.0 399.0
409 429.0 317.0
410 441.0 282.0
411 157.0 475.0
412 23.0 126.0
413 61.0 317.0
414 244.0 4.0
415 473.0 447.0
416 241.0 400.0
417 496.0 147.0
418 152.0 192.0
419 362.0 356.0
420 493.0 85.0
421 458.0 166.0
422 484.0 188.0
423 400.0 159.0
424 345.0 194.0
425 298.0 172.0
426 317.0 374.0
427 106.0 307.0
428 438.0 315.0
429 196.0 278.0
430 328.0 137.0
431 47.0 409.0
432 498.0 109.0
433 183.0 368.0
434 459.0 394.0
435 265.0 467.0
436 141.0 363.0
437 465.0 101.0
438 381.0 179.0
439 14.0 161.0
440 8.0 113.0
441 72.0 487.0
442 281.0 291.0
443 305.0 205.0
444 200.0 323.0
445 309.0 17.0
446 456.0 14.0
447 273.0 264.0
448 31.0 129.0
449 25.0 365.0
450 222.0 384.0
451 345.0 430.0
452 93.0 149.0
453 192.0 147.0
454 135.0 34.0
455 230.0 264.0
456 133.0 347.0
457 300.0 240.0
458 24.0 88.0
459 219.0 401.0
460 242.0 469.0
461 60.0 171.0
462 336.0 130.0
463 291.0 215.0
464 356.0 34.0
465 421.0 61.0
466 294.0 224.0
467 42.0 45.0
468 73.0 395.0
469 403.0 137.0
470 370.0 6.0
471 418.0 492.0
472 276.0 353.0
473 235.0 302.0
474 65.0 333.0
475 266.0 265.0
476 78.0 340.0
477 316.0 271.0
478 7.0 494.0
479 196.0 105.0
480 69.0 166.0
481 477.0 271.0
482 359.0 489.0
483 251.0 255.0
484 382.0 323.0
485 64.0 295.0
486 37.0 364.0
487 396.0 8.0
488 70.0 355.0
489 331.0 429.0
490 250.0 111.0
491 318.0 309.0
492 299.0 289.0
493 144.0 235.0
494 335.0 134.0
495 35.0 417.0
496 341.0 130.0
497 497.0 198.0
498 426.0 273.0
499 320.0 139.0
500 400.0 417.0
501 346.0 237.0
EOF
